problems/VanDerWaerdenNumbers/VanDerWaerden-models/noch/O2/lingeling/model_2-k3l4n38-solution000001.eprime-solution
language ESSENCE' 1.0

letting p_PartitionAsSet_ExplicitR6_ExplicitVarSizeWithDummy be
        [[1, 6, 9, 11, 13, 22, 23, 26, 29, 30, 31, 33, 36, 37, 38, 39, 39, 39, 39, 39, 39, 39, 39, 39, 39, 39, 39, 39,
          39, 39, 39, 39, 39, 39, 39, 39, 39, 39; int(1..38)],
         [2, 10, 15, 16, 18, 28, 32, 34, 39, 39, 39, 39, 39, 39, 39, 39, 39, 39, 39, 39, 39, 39, 39, 39, 39, 39, 39, 39,
          39, 39, 39, 39, 39, 39, 39, 39, 39, 39; int(1..38)],
         [3, 4, 5, 7, 8, 12, 14, 17, 19, 20, 21, 24, 25, 27, 35, 39, 39, 39, 39, 39, 39, 39, 39, 39, 39, 39, 39, 39, 39,
          39, 39, 39, 39, 39, 39, 39, 39, 39; int(1..38)]; int(1..3)]
