problems/VanDerWaerdenNumbers/VanDerWaerden-models/noch/O2/lingeling/model_2-k3l4n38-solution000001.solution
language Essence 1.3

letting p be
        partition({1, 6, 9, 11, 13, 22, 23, 26, 29, 30, 31, 33, 36, 37, 38}, {2, 10, 15, 16, 18, 28, 32, 34},
                  {3, 4, 5, 7, 8, 12, 14, 17, 19, 20, 21, 24, 25, 27, 35})
